(set-info :smt-lib-version 2.6)
(set-logic QF_LRA)
(set-info :source |
  QF_LRA BMC and k-Induction problems on networks of hybrid automata, from NuSMV.
  These are benchmarks for hybrid automata, generated by unrolling the
  NuSMV models and checking them with BMC or k-Induction.
  Generated by Alberto Griggio <griggio@fbk.eu>
|)
(set-info :category "industrial")
(declare-fun env.part_c.0__AT0 () Bool)
(declare-fun env.part_c.1__AT0 () Bool)
(declare-fun env.part_c.2__AT0 () Bool)
(declare-fun env.part_c.3__AT0 () Bool)
(declare-fun env.part_c.4__AT0 () Bool)
(declare-fun env.part_e.0__AT0 () Bool)
(declare-fun env.part_e.1__AT0 () Bool)
(declare-fun env.part_e.2__AT0 () Bool)
(declare-fun env.part_e.3__AT0 () Bool)
(declare-fun env.part_e.4__AT0 () Bool)
(declare-fun env.part_f.0__AT0 () Bool)
(declare-fun env.part_f.1__AT0 () Bool)
(declare-fun env.part_f.2__AT0 () Bool)
(declare-fun env.part_f.3__AT0 () Bool)
(declare-fun env.part_f.4__AT0 () Bool)
(declare-fun env.h__AT0 () Real)
(declare-fun env.der_e__AT0 () Real)
(declare-fun env.der_c__AT0 () Real)
(declare-fun env.e__AT0 () Real)
(declare-fun env.c__AT0 () Real)
(declare-fun env.f__AT0 () Real)
(declare-fun env.state.0__AT0 () Bool)
(declare-fun env.state.1__AT0 () Bool)
(declare-fun env.time__AT0 () Real)
(declare-fun env.monitor_state.0__AT0 () Bool)
(declare-fun env.monitor_state.1__AT0 () Bool)
(declare-fun env.monitor_state.2__AT0 () Bool)
(declare-fun env.monitor_state.3__AT0 () Bool)
(declare-fun env.monitor_state.4__AT0 () Bool)
(declare-fun env.monitor_state.5__AT0 () Bool)
(declare-fun env.monitor_state.6__AT0 () Bool)
(declare-fun env.monitor_state.7__AT0 () Bool)
(declare-fun env.monitor_state.8__AT0 () Bool)
(declare-fun env.EVENT.0__AT0 () Bool)
(declare-fun env.EVENT.1__AT0 () Bool)
(declare-fun env.EVENT.2__AT0 () Bool)
(declare-fun env.EVENT.3__AT0 () Bool)
(declare-fun env.delta__AT0 () Real)
(declare-fun con.state.0__AT0 () Bool)
(declare-fun con.state.1__AT0 () Bool)
(declare-fun con.state.2__AT0 () Bool)
(declare-fun con.time__AT0 () Real)
(declare-fun con.monitor_state.0__AT0 () Bool)
(declare-fun con.monitor_state.1__AT0 () Bool)
(declare-fun con.monitor_state.2__AT0 () Bool)
(declare-fun con.monitor_state.3__AT0 () Bool)
(declare-fun con.monitor_state.4__AT0 () Bool)
(declare-fun con.monitor_state.5__AT0 () Bool)
(declare-fun con.monitor_state.6__AT0 () Bool)
(declare-fun con.monitor_state.7__AT0 () Bool)
(declare-fun con.monitor_state.8__AT0 () Bool)
(declare-fun con.EVENT.0__AT0 () Bool)
(declare-fun con.EVENT.1__AT0 () Bool)
(declare-fun con.EVENT.2__AT0 () Bool)
(declare-fun con.EVENT.3__AT0 () Bool)
(declare-fun con.delta__AT0 () Real)
(declare-fun tim.t__AT0 () Real)
(declare-fun tim.time__AT0 () Real)
(declare-fun tim.monitor_state.0__AT0 () Bool)
(declare-fun tim.monitor_state.1__AT0 () Bool)
(declare-fun tim.monitor_state.2__AT0 () Bool)
(declare-fun tim.monitor_state.3__AT0 () Bool)
(declare-fun tim.monitor_state.4__AT0 () Bool)
(declare-fun tim.monitor_state.5__AT0 () Bool)
(declare-fun tim.monitor_state.6__AT0 () Bool)
(declare-fun tim.monitor_state.7__AT0 () Bool)
(declare-fun tim.EVENT.0__AT0 () Bool)
(declare-fun tim.EVENT.1__AT0 () Bool)
(declare-fun tim.EVENT.2__AT0 () Bool)
(declare-fun tim.EVENT.3__AT0 () Bool)
(declare-fun tim.delta__AT0 () Real)
(declare-fun ev_max__AT0 () Real)
(declare-fun ev_min__AT0 () Real)
(declare-fun cp_max__AT0 () Real)
(declare-fun cp_min__AT0 () Real)
(declare-fun e_max__AT0 () Real)
(declare-fun e_min__AT0 () Real)
(declare-fun param_T__AT0 () Real)
(declare-fun otu_d__AT0 () Real)
(declare-fun itu_d__AT0 () Real)
(declare-fun otl_d__AT0 () Real)
(declare-fun itl_d__AT0 () Real)
(declare-fun sp__AT0 () Real)
(declare-fun t_sample__AT0 () Real)
(push 1)
(check-sat)
(check-sat)
